p cnf 805 1425
1 -2 0
1 -3 0
2 3 -1 0
4 -1 0
1 -4 0
5 -6 0
5 -7 0
6 7 -5 0
3 -5 0
-3 5 0
8 -9 0
8 -10 0
9 10 -8 0
7 -8 0
-7 8 0
11 -12 0
11 -13 0
12 13 -11 0
10 -11 0
-10 11 0
14 -15 0
14 -16 0
15 16 -14 0
13 -14 0
-13 14 0
17 -18 0
17 -19 0
18 19 -17 0
16 -17 0
-16 17 0
20 -21 0
20 -22 0
21 22 -20 0
19 -20 0
-19 20 0
23 -24 0
23 -25 0
24 25 -23 0
22 -23 0
-22 23 0
26 -27 0
26 -28 0
27 28 -26 0
25 -26 0
-25 26 0
29 -30 0
29 -31 0
30 31 -29 0
28 -29 0
-28 29 0
32 -33 0
32 -34 0
33 34 -32 0
31 -32 0
-31 32 0
35 -36 0
35 -37 0
36 37 -35 0
34 -35 0
-34 35 0
38 -39 0
38 -40 0
39 40 -38 0
37 -38 0
-37 38 0
-21 41 0
-24 41 0
-27 41 0
-30 41 0
-33 41 0
-36 41 0
-39 41 0
41 -42 0
43 0
40 -41 0
-40 41 0
44 -45 0
44 -46 0
45 46 -44 0
47 -44 0
44 -47 0
48 -49 0
48 -50 0
49 50 -48 0
46 -48 0
-46 48 0
51 -52 0
51 -53 0
52 53 -51 0
50 -51 0
-50 51 0
54 -55 0
54 -56 0
55 56 -54 0
53 -54 0
-53 54 0
57 -58 0
57 -59 0
58 59 -57 0
56 -57 0
-56 57 0
60 -61 0
60 -62 0
61 62 -60 0
59 -60 0
-59 60 0
63 -64 0
63 -65 0
64 65 -63 0
62 -63 0
-62 63 0
66 -67 0
66 -68 0
67 68 -66 0
65 -66 0
-65 66 0
69 -70 0
69 -71 0
70 71 -69 0
68 -69 0
-68 69 0
-58 72 0
-61 72 0
-64 72 0
-67 72 0
-70 72 0
72 -73 0
74 0
71 -72 0
-71 72 0
75 -76 0
75 -77 0
76 77 -75 0
78 -75 0
75 -78 0
79 -80 0
79 -81 0
80 81 -79 0
77 -79 0
-77 79 0
82 -83 0
82 -84 0
83 84 -82 0
81 -82 0
-81 82 0
85 -86 0
85 -87 0
86 87 -85 0
84 -85 0
-84 85 0
88 -89 0
88 -90 0
89 90 -88 0
87 -88 0
-87 88 0
91 -92 0
91 -93 0
92 93 -91 0
90 -91 0
-90 91 0
94 -95 0
94 -96 0
95 96 -94 0
93 -94 0
-93 94 0
97 -98 0
97 -99 0
98 99 -97 0
96 -97 0
-96 97 0
100 -101 0
100 -102 0
101 102 -100 0
99 -100 0
-99 100 0
103 -104 0
103 -105 0
104 105 -103 0
102 -103 0
-102 103 0
106 -107 0
106 -108 0
107 108 -106 0
105 -106 0
-105 106 0
-89 109 0
-92 109 0
-95 109 0
-98 109 0
-101 109 0
-104 109 0
-107 109 0
109 -110 0
111 0
108 -109 0
-108 109 0
112 -113 0
112 -114 0
113 114 -112 0
115 -112 0
112 -115 0
116 -117 0
116 -118 0
117 118 -116 0
114 -116 0
-114 116 0
119 -120 0
119 -121 0
120 121 -119 0
118 -119 0
-118 119 0
122 -123 0
122 -124 0
123 124 -122 0
121 -122 0
-121 122 0
125 -126 0
125 -127 0
126 127 -125 0
124 -125 0
-124 125 0
128 -129 0
128 -130 0
129 130 -128 0
127 -128 0
-127 128 0
131 -132 0
131 -133 0
132 133 -131 0
130 -131 0
-130 131 0
134 -135 0
134 -136 0
135 136 -134 0
133 -134 0
-133 134 0
137 -138 0
137 -139 0
138 139 -137 0
136 -137 0
-136 137 0
140 -141 0
140 -142 0
141 142 -140 0
139 -140 0
-139 140 0
143 -144 0
143 -145 0
144 145 -143 0
142 -143 0
-142 143 0
146 -147 0
146 -148 0
147 148 -146 0
145 -146 0
-145 146 0
149 -150 0
149 -151 0
150 151 -149 0
148 -149 0
-148 149 0
-135 152 0
-138 152 0
-141 152 0
-144 152 0
-147 152 0
-150 152 0
152 -153 0
154 0
151 -152 0
-151 152 0
155 -156 0
155 -157 0
156 157 -155 0
158 -155 0
155 -158 0
159 -160 0
159 -161 0
160 161 -159 0
157 -159 0
-157 159 0
162 -163 0
162 -164 0
163 164 -162 0
161 -162 0
-161 162 0
165 -166 0
165 -167 0
166 167 -165 0
164 -165 0
-164 165 0
168 -169 0
168 -170 0
169 170 -168 0
167 -168 0
-167 168 0
171 -172 0
171 -173 0
172 173 -171 0
170 -171 0
-170 171 0
174 -175 0
174 -176 0
175 176 -174 0
173 -174 0
-173 174 0
177 -178 0
177 -179 0
178 179 -177 0
176 -177 0
-176 177 0
180 -181 0
180 -182 0
181 182 -180 0
179 -180 0
-179 180 0
183 -184 0
183 -185 0
184 185 -183 0
182 -183 0
-182 183 0
-169 186 0
-172 186 0
-175 186 0
-178 186 0
-181 186 0
-184 186 0
186 -187 0
188 0
185 -186 0
-185 186 0
189 -190 0
189 -191 0
190 191 -189 0
192 -189 0
189 -192 0
193 -194 0
193 -195 0
194 195 -193 0
191 -193 0
-191 193 0
196 -197 0
196 -198 0
197 198 -196 0
195 -196 0
-195 196 0
199 -200 0
199 -201 0
200 201 -199 0
198 -199 0
-198 199 0
202 -203 0
202 -204 0
203 204 -202 0
201 -202 0
-201 202 0
205 -206 0
205 -207 0
206 207 -205 0
204 -205 0
-204 205 0
208 -209 0
208 -210 0
209 210 -208 0
207 -208 0
-207 208 0
211 -212 0
211 -213 0
212 213 -211 0
210 -211 0
-210 211 0
214 -215 0
214 -216 0
215 216 -214 0
213 -214 0
-213 214 0
217 -218 0
217 -219 0
218 219 -217 0
216 -217 0
-216 217 0
-206 220 0
-209 220 0
-212 220 0
-215 220 0
-218 220 0
220 -221 0
222 0
219 -220 0
-219 220 0
223 -224 0
223 -225 0
224 225 -223 0
226 -223 0
223 -226 0
227 -228 0
227 -229 0
228 229 -227 0
225 -227 0
-225 227 0
230 -231 0
230 -232 0
231 232 -230 0
229 -230 0
-229 230 0
233 -234 0
233 -235 0
234 235 -233 0
232 -233 0
-232 233 0
236 -237 0
236 -238 0
237 238 -236 0
235 -236 0
-235 236 0
239 -240 0
239 -241 0
240 241 -239 0
238 -239 0
-238 239 0
242 -243 0
242 -244 0
243 244 -242 0
241 -242 0
-241 242 0
245 -246 0
245 -247 0
246 247 -245 0
244 -245 0
-244 245 0
248 -249 0
248 -250 0
249 250 -248 0
247 -248 0
-247 248 0
251 -252 0
251 -253 0
252 253 -251 0
250 -251 0
-250 251 0
254 -255 0
254 -256 0
255 256 -254 0
253 -254 0
-253 254 0
257 -258 0
257 -259 0
258 259 -257 0
256 -257 0
-256 257 0
260 -261 0
260 -262 0
261 262 -260 0
259 -260 0
-259 260 0
263 -264 0
263 -265 0
264 265 -263 0
262 -263 0
-262 263 0
-249 266 0
-252 266 0
-255 266 0
-258 266 0
-261 266 0
-264 266 0
266 -267 0
268 0
265 -266 0
-265 266 0
269 -270 0
269 -271 0
270 271 -269 0
272 -269 0
269 -272 0
273 -274 0
273 -275 0
274 275 -273 0
271 -273 0
-271 273 0
276 -277 0
276 -278 0
277 278 -276 0
275 -276 0
-275 276 0
-145 279 0
279 -280 0
145 280 -279 0
278 -279 0
-278 279 0
281 -282 0
281 -283 0
282 283 -281 0
284 -281 0
281 -284 0
285 -286 0
285 -287 0
286 287 -285 0
283 -285 0
-283 285 0
288 -289 0
288 -290 0
289 290 -288 0
287 -288 0
-287 288 0
291 -292 0
291 -293 0
292 293 -291 0
290 -291 0
-290 291 0
294 -295 0
294 -296 0
295 296 -294 0
293 -294 0
-293 294 0
297 -298 0
297 -299 0
298 299 -297 0
296 -297 0
-296 297 0
300 -301 0
300 -302 0
301 302 -300 0
299 -300 0
-299 300 0
303 -304 0
303 -305 0
304 305 -303 0
302 -303 0
-302 303 0
306 -307 0
306 -308 0
307 308 -306 0
305 -306 0
-305 306 0
309 -310 0
309 -311 0
310 311 -309 0
308 -309 0
-308 309 0
312 -313 0
312 -314 0
313 314 -312 0
311 -312 0
-311 312 0
315 -316 0
315 -317 0
316 317 -315 0
314 -315 0
-314 315 0
318 -319 0
318 -320 0
319 320 -318 0
317 -318 0
-317 318 0
-304 321 0
-307 321 0
-310 321 0
-313 321 0
-316 321 0
-319 321 0
321 -322 0
323 0
320 -321 0
-320 321 0
324 -325 0
324 -326 0
325 326 -324 0
327 -324 0
324 -327 0
328 -329 0
328 -330 0
329 330 -328 0
326 -328 0
-326 328 0
331 -332 0
331 -333 0
332 333 -331 0
330 -331 0
-330 331 0
334 -335 0
334 -336 0
335 336 -334 0
333 -334 0
-333 334 0
337 -338 0
337 -339 0
338 339 -337 0
336 -337 0
-336 337 0
340 -341 0
340 -342 0
341 342 -340 0
339 -340 0
-339 340 0
343 -344 0
343 -345 0
344 345 -343 0
342 -343 0
-342 343 0
346 -347 0
346 -348 0
347 348 -346 0
345 -346 0
-345 346 0
349 -350 0
349 -351 0
350 351 -349 0
348 -349 0
-348 349 0
352 -353 0
352 -354 0
353 354 -352 0
351 -352 0
-351 352 0
355 -356 0
355 -357 0
356 357 -355 0
354 -355 0
-354 355 0
-341 358 0
-344 358 0
-347 358 0
-350 358 0
-353 358 0
-356 358 0
358 -359 0
360 0
357 -358 0
-357 358 0
361 -362 0
361 -363 0
362 363 -361 0
364 -361 0
361 -364 0
365 -366 0
365 -367 0
366 367 -365 0
363 -365 0
-363 365 0
368 -369 0
368 -370 0
369 370 -368 0
367 -368 0
-367 368 0
371 -372 0
371 -373 0
372 373 -371 0
370 -371 0
-370 371 0
-50 374 0
374 -375 0
50 375 -374 0
373 -374 0
-373 374 0
376 -377 0
376 -378 0
377 378 -376 0
379 -376 0
376 -379 0
380 -381 0
380 -382 0
381 382 -380 0
378 -380 0
-378 380 0
383 -384 0
383 -385 0
384 385 -383 0
382 -383 0
-382 383 0
386 -387 0
386 -388 0
387 388 -386 0
385 -386 0
-385 386 0
389 -390 0
389 -391 0
390 391 -389 0
388 -389 0
-388 389 0
392 -393 0
392 -394 0
393 394 -392 0
391 -392 0
-391 392 0
395 -396 0
395 -397 0
396 397 -395 0
394 -395 0
-394 395 0
398 -399 0
398 -400 0
399 400 -398 0
397 -398 0
-397 398 0
401 -402 0
401 -403 0
402 403 -401 0
400 -401 0
-400 401 0
404 -405 0
404 -406 0
405 406 -404 0
403 -404 0
-403 404 0
407 -408 0
407 -409 0
408 409 -407 0
406 -407 0
-406 407 0
410 -411 0
410 -412 0
411 412 -410 0
409 -410 0
-409 410 0
-396 413 0
-399 413 0
-402 413 0
-405 413 0
-408 413 0
-411 413 0
413 -414 0
415 0
412 -413 0
-412 413 0
416 -417 0
416 -418 0
417 418 -416 0
419 -416 0
416 -419 0
420 -421 0
420 -422 0
421 422 -420 0
418 -420 0
-418 420 0
423 -424 0
423 -425 0
424 425 -423 0
422 -423 0
-422 423 0
-136 426 0
426 -427 0
136 427 -426 0
425 -426 0
-425 426 0
428 -429 0
428 -430 0
429 430 -428 0
431 -428 0
428 -431 0
432 -433 0
432 -434 0
433 434 -432 0
430 -432 0
-430 432 0
435 -436 0
435 -437 0
436 437 -435 0
434 -435 0
-434 435 0
438 -439 0
438 -440 0
439 440 -438 0
437 -438 0
-437 438 0
441 -442 0
441 -443 0
442 443 -441 0
440 -441 0
-440 441 0
444 -445 0
444 -446 0
445 446 -444 0
443 -444 0
-443 444 0
447 -448 0
447 -449 0
448 449 -447 0
446 -447 0
-446 447 0
450 -451 0
450 -452 0
451 452 -450 0
449 -450 0
-449 450 0
453 -454 0
453 -455 0
454 455 -453 0
452 -453 0
-452 453 0
456 -457 0
456 -458 0
457 458 -456 0
455 -456 0
-455 456 0
459 -460 0
459 -461 0
460 461 -459 0
458 -459 0
-458 459 0
462 -463 0
462 -464 0
463 464 -462 0
461 -462 0
-461 462 0
465 -466 0
465 -467 0
466 467 -465 0
464 -465 0
-464 465 0
-454 468 0
-457 468 0
-460 468 0
-463 468 0
-466 468 0
468 -469 0
470 0
467 -468 0
-467 468 0
471 -472 0
471 -473 0
472 473 -471 0
474 -471 0
471 -474 0
475 -476 0
475 -477 0
476 477 -475 0
473 -475 0
-473 475 0
478 -479 0
478 -480 0
479 480 -478 0
477 -478 0
-477 478 0
481 -482 0
481 -483 0
482 483 -481 0
480 -481 0
-480 481 0
-250 484 0
484 -485 0
250 485 -484 0
483 -484 0
-483 484 0
486 -487 0
486 -488 0
487 488 -486 0
489 -486 0
486 -489 0
490 -491 0
490 -492 0
491 492 -490 0
488 -490 0
-488 490 0
493 -494 0
493 -495 0
494 495 -493 0
492 -493 0
-492 493 0
496 -497 0
496 -498 0
497 498 -496 0
495 -496 0
-495 496 0
499 -500 0
499 -501 0
500 501 -499 0
498 -499 0
-498 499 0
502 -503 0
502 -504 0
503 504 -502 0
501 -502 0
-501 502 0
505 -506 0
505 -507 0
506 507 -505 0
504 -505 0
-504 505 0
508 -509 0
508 -510 0
509 510 -508 0
507 -508 0
-507 508 0
511 -512 0
511 -513 0
512 513 -511 0
510 -511 0
-510 511 0
514 -515 0
514 -516 0
515 516 -514 0
513 -514 0
-513 514 0
517 -518 0
517 -519 0
518 519 -517 0
516 -517 0
-516 517 0
-503 520 0
-506 520 0
-509 520 0
-512 520 0
-515 520 0
-518 520 0
520 -521 0
522 0
519 -520 0
-519 520 0
523 -524 0
523 -525 0
524 525 -523 0
526 -523 0
523 -526 0
527 -528 0
527 -529 0
528 529 -527 0
525 -527 0
-525 527 0
530 -531 0
530 -532 0
531 532 -530 0
529 -530 0
-529 530 0
533 -534 0
533 -535 0
534 535 -533 0
532 -533 0
-532 533 0
536 -537 0
536 -538 0
537 538 -536 0
535 -536 0
-535 536 0
539 -540 0
539 -541 0
540 541 -539 0
538 -539 0
-538 539 0
541 -542 0
542 -541 0
543 -544 0
543 -545 0
544 545 -543 0
546 -543 0
543 -546 0
547 -548 0
547 -549 0
548 549 -547 0
545 -547 0
-545 547 0
550 -551 0
550 -552 0
551 552 -550 0
549 -550 0
-549 550 0
553 -554 0
553 -555 0
554 555 -553 0
552 -553 0
-552 553 0
556 -557 0
556 -558 0
557 558 -556 0
555 -556 0
-555 556 0
559 -560 0
559 -561 0
560 561 -559 0
558 -559 0
-558 559 0
562 -563 0
562 -564 0
563 564 -562 0
561 -562 0
-561 562 0
565 -566 0
565 -567 0
566 567 -565 0
564 -565 0
-564 565 0
568 -569 0
568 -570 0
569 570 -568 0
567 -568 0
-567 568 0
571 -572 0
571 -573 0
572 573 -571 0
570 -571 0
-570 571 0
574 -575 0
574 -576 0
575 576 -574 0
573 -574 0
-573 574 0
577 -578 0
577 -579 0
578 579 -577 0
576 -577 0
-576 577 0
-566 580 0
-569 580 0
-572 580 0
-575 580 0
-578 580 0
580 -581 0
582 0
579 -580 0
-579 580 0
583 -584 0
583 -585 0
584 585 -583 0
586 -583 0
583 -586 0
587 -588 0
587 -589 0
588 589 -587 0
585 -587 0
-585 587 0
590 -591 0
590 -592 0
591 592 -590 0
589 -590 0
-589 590 0
593 -594 0
593 -595 0
594 595 -593 0
592 -593 0
-592 593 0
596 -597 0
596 -598 0
597 598 -596 0
595 -596 0
-595 596 0
599 -600 0
599 -601 0
600 601 -599 0
598 -599 0
-598 599 0
602 -603 0
602 -604 0
603 604 -602 0
601 -602 0
-601 602 0
605 -606 0
605 -607 0
606 607 -605 0
604 -605 0
-604 605 0
608 -609 0
608 -610 0
609 610 -608 0
607 -608 0
-607 608 0
611 -612 0
611 -613 0
612 613 -611 0
610 -611 0
-610 611 0
614 -615 0
614 -616 0
615 616 -614 0
613 -614 0
-613 614 0
617 -618 0
617 -619 0
618 619 -617 0
616 -617 0
-616 617 0
620 -621 0
620 -622 0
621 622 -620 0
619 -620 0
-619 620 0
623 -624 0
623 -625 0
624 625 -623 0
622 -623 0
-622 623 0
626 -627 0
626 -628 0
627 628 -626 0
625 -626 0
-625 626 0
-609 629 0
-612 629 0
-615 629 0
-618 629 0
-621 629 0
-624 629 0
-627 629 0
629 -630 0
631 0
628 -629 0
-628 629 0
632 -633 0
632 -634 0
633 634 -632 0
635 -632 0
632 -635 0
636 -637 0
636 -638 0
637 638 -636 0
634 -636 0
-634 636 0
639 -640 0
639 -641 0
640 641 -639 0
638 -639 0
-638 639 0
642 -643 0
642 -644 0
643 644 -642 0
641 -642 0
-641 642 0
645 -646 0
645 -647 0
646 647 -645 0
644 -645 0
-644 645 0
648 -649 0
648 -650 0
649 650 -648 0
647 -648 0
-647 648 0
651 -652 0
651 -653 0
652 653 -651 0
650 -651 0
-650 651 0
654 -655 0
654 -656 0
655 656 -654 0
653 -654 0
-653 654 0
657 -658 0
657 -659 0
658 659 -657 0
656 -657 0
-656 657 0
660 -661 0
660 -662 0
661 662 -660 0
659 -660 0
-659 660 0
663 -664 0
663 -665 0
664 665 -663 0
662 -663 0
-662 663 0
-649 666 0
-652 666 0
-655 666 0
-658 666 0
-661 666 0
-664 666 0
666 -667 0
668 0
665 -666 0
-665 666 0
669 -670 0
669 -671 0
670 671 -669 0
672 -669 0
669 -672 0
-53 673 0
673 -674 0
53 674 -673 0
671 -673 0
-671 673 0
675 -676 0
675 -677 0
676 677 -675 0
678 -675 0
675 -678 0
679 -680 0
679 -681 0
680 681 -679 0
677 -679 0
-677 679 0
682 -683 0
682 -684 0
683 684 -682 0
681 -682 0
-681 682 0
685 -686 0
685 -687 0
686 687 -685 0
684 -685 0
-684 685 0
688 -689 0
688 -690 0
689 690 -688 0
687 -688 0
-687 688 0
691 -692 0
691 -693 0
692 693 -691 0
690 -691 0
-690 691 0
694 -695 0
694 -696 0
695 696 -694 0
693 -694 0
-693 694 0
697 -698 0
697 -699 0
698 699 -697 0
696 -697 0
-696 697 0
700 -701 0
700 -702 0
701 702 -700 0
699 -700 0
-699 700 0
703 -704 0
703 -705 0
704 705 -703 0
702 -703 0
-702 703 0
706 -707 0
706 -708 0
707 708 -706 0
705 -706 0
-705 706 0
709 -710 0
709 -711 0
710 711 -709 0
708 -709 0
-708 709 0
712 -713 0
712 -714 0
713 714 -712 0
711 -712 0
-711 712 0
-695 715 0
-698 715 0
-701 715 0
-704 715 0
-707 715 0
-710 715 0
-713 715 0
715 -716 0
717 0
714 -715 0
-714 715 0
718 -719 0
718 -720 0
719 720 -718 0
721 -718 0
718 -721 0
722 -723 0
722 -724 0
723 724 -722 0
720 -722 0
-720 722 0
-290 725 0
725 -726 0
290 726 -725 0
724 -725 0
-724 725 0
727 -728 0
727 -729 0
728 729 -727 0
730 -727 0
727 -730 0
731 -732 0
731 -733 0
732 733 -731 0
729 -731 0
-729 731 0
734 -735 0
734 -736 0
735 736 -734 0
733 -734 0
-733 734 0
737 -738 0
737 -739 0
738 739 -737 0
736 -737 0
-736 737 0
740 -741 0
740 -742 0
741 742 -740 0
739 -740 0
-739 740 0
743 -744 0
743 -745 0
744 745 -743 0
742 -743 0
-742 743 0
746 -747 0
746 -748 0
747 748 -746 0
745 -746 0
-745 746 0
749 -750 0
749 -751 0
750 751 -749 0
748 -749 0
-748 749 0
752 -753 0
752 -754 0
753 754 -752 0
751 -752 0
-751 752 0
755 -756 0
755 -757 0
756 757 -755 0
754 -755 0
-754 755 0
-744 758 0
-747 758 0
-750 758 0
-753 758 0
-756 758 0
758 -759 0
760 0
757 -758 0
-757 758 0
761 -762 0
761 -763 0
762 763 -761 0
764 -761 0
761 -764 0
765 -766 0
765 -767 0
766 767 -765 0
763 -765 0
-763 765 0
768 -769 0
768 -770 0
769 770 -768 0
767 -768 0
-767 768 0
771 -772 0
771 -773 0
772 773 -771 0
770 -771 0
-770 771 0
774 -775 0
774 -776 0
775 776 -774 0
773 -774 0
-773 774 0
777 -778 0
777 -779 0
778 779 -777 0
776 -777 0
-776 777 0
780 -781 0
780 -782 0
781 782 -780 0
779 -780 0
-779 780 0
783 -784 0
783 -785 0
784 785 -783 0
782 -783 0
-782 783 0
786 -787 0
786 -788 0
787 788 -786 0
785 -786 0
-785 786 0
789 -790 0
789 -791 0
790 791 -789 0
788 -789 0
-788 789 0
792 -793 0
792 -794 0
793 794 -792 0
791 -792 0
-791 792 0
795 -796 0
795 -797 0
796 797 -795 0
794 -795 0
-794 795 0
798 -799 0
798 -800 0
799 800 -798 0
797 -798 0
-797 798 0
-781 801 0
-784 801 0
-787 801 0
-790 801 0
-793 801 0
-796 801 0
-799 801 0
801 -802 0
803 0
800 -801 0
-800 801 0
804 -805 0
805 -804 0
4 0
47 0
78 0
115 0
158 0
192 0
226 0
272 0
284 0
327 0
364 0
379 0
419 0
431 0
474 0
489 0
526 0
546 0
586 0
635 0
672 0
678 0
721 0
730 0
764 0
-804 0
